s td 747 2 924
b 1 1
b 2 2 341
b 3 341 342
b 4 4 354
b 5 353 354
b 6 3 353
b 7 3 723
b 8 5 260
b 9 5 297
b 10 5 395
b 11 6 821
b 12 7
b 13 8
b 14 9
b 15 10 557
b 16 10 570
b 17 11
b 18 12 513
b 19 513 514
b 20 13 739
b 21 14
b 22 38 593
b 23 38 854
b 24 15 707
b 25 851 852
b 26 15 852
b 27 15 853
b 28 853 854
b 29 854
b 30 16 708
b 31 17 451
b 32 451 452
b 33 18 283
b 34 283 284
b 35 19
b 36 20 917
b 37 21 673
b 38 21 918
b 39 22 674
b 40 23 271
b 41 271 272
b 42 24 834
b 43 833 834
b 44 834
b 45 25
b 46 26
b 47 27 893
b 48 28 298
b 49 29 695
b 50 30
b 51 31 725
b 52 343 344
b 53 32 343
b 54 32 726
b 55 32 850
b 56 33
b 57 34
b 58 35
b 59 36 824
b 60 37
b 61 39 594
b 62 39 919
b 63 919 920
b 64 40
b 65 41
b 66 42
b 67 43
b 68 44 896
b 69 45
b 70 46 414
b 71 47
b 72 48 838
b 73 49
b 74 50
b 75 51 661
b 76 51 788
b 77 52 560
b 78 559 560
b 79 560
b 80 53 346
b 81 345 346
b 82 346
b 83 54
b 84 55 483
b 85 483 484
b 86 56 312
b 87 57 455
b 88 58 571
b 89 59 409
b 90 59 572
b 91 571 572
b 92 572
b 93 60 410
b 94 61 361
b 95 61 419
b 96 62
b 97 63
b 98 64 909
b 99 65
b 100 66
b 101 67 855
b 102 68 884
b 103 69 562
b 104 69 811
b 105 70 427
b 106 71 428
b 107 71 573
b 108 383 384
b 109 72 384
b 110 72 397
b 111 73 398
b 112 73 641
b 113 74 634
b 114 74 662
b 115 75 651
b 116 76 347
b 117 76 518
b 118 77
b 119 78
b 120 79 265
b 121 80 458
b 122 81
b 123 82 870
b 124 869 870
b 125 870
b 126 83
b 127 84
b 128 85 421
b 129 107 399
b 130 399 400
b 131 108 400
b 132 108 422
b 133 421 422
b 134 422
b 135 86
b 136 87
b 137 88 274
b 138 273 274
b 139 274
b 140 89
b 141 90
b 142 91
b 143 92 676
b 144 93 387
b 145 94 644
b 146 95
b 147 96 441
b 148 441 442
b 149 97
b 150 98
b 151 443 444
b 152 99 444
b 153 99 887
b 154 100 333
b 155 100 826
b 156 101 783
b 157 102 793
b 158 103
b 159 104 898
b 160 105 543
b 161 247 248
b 162 128 247
b 163 128 544
b 164 543 544
b 165 544
b 166 287 288
b 167 106 288
b 168 106 921
b 169 921 922
b 170 109 583
b 171 110 730
b 172 729 730
b 173 730
b 174 111
b 175 112 268
b 176 315 316
b 177 112 316
b 178 112 403
b 179 113
b 180 114 774
b 181 115 289
b 182 116 388
b 183 117 635
b 184 635 636
b 185 118 506
b 186 119 546
b 187 119 841
b 188 120 245
b 189 121
b 190 122
b 191 123
b 192 124 858
b 193 124 859
b 194 125 447
b 195 447 448
b 196 126 462
b 197 127 777
b 198 129 495
b 199 129 531
b 200 130 402
b 201 130 496
b 202 131 704
b 203 132 584
b 204 133
b 205 134 249
b 206 135 250
b 207 249 250
b 208 250
b 209 136
b 210 137 303
b 211 137 368
b 212 349 350
b 213 138 350
b 214 138 595
b 215 139 596
b 216 140
b 217 141 885
b 218 142
b 219 143
b 220 144 252
b 221 144 705
b 222 145
b 223 146 302
b 224 147 767
b 225 148 768
b 226 767 768
b 227 768
b 228 149 275
b 229 149 307
b 230 150 778
b 231 151
b 232 152 532
b 233 152 762
b 234 761 762
b 235 762
b 236 153 691
b 237 691 692
b 238 154
b 239 155 877
b 240 155 879
b 241 879 880
b 242 156
b 243 157 678
b 244 158 657
b 245 159 658
b 246 160
b 247 161 293
b 248 162 832
b 249 831 832
b 250 832
b 251 163 534
b 252 163 671
b 253 164 578
b 254 165
b 255 277 278
b 256 166 277
b 257 166 598
b 258 597 598
b 259 598
b 260 167 449
b 261 190 450
b 262 449 450
b 263 450
b 264 168 844
b 265 169 522
b 266 169 815
b 267 170
b 268 171 780
b 269 172 405
b 270 172 912
b 271 173 279
b 272 174 280
b 273 279 280
b 274 280
b 275 175
b 276 176
b 277 178 392
b 278 391 392
b 279 177 391
b 280 177 601
b 281 179
b 282 180 620
b 283 619 620
b 284 620
b 285 181 763
b 286 763 764
b 287 182 716
b 288 715 716
b 289 716
b 290 183
b 291 184 603
b 292 185
b 293 186 745
b 294 745 746
b 295 187 621
b 296 188 580
b 297 189 418
b 298 547 548
b 299 189 547
b 300 189 607
b 301 607 608
b 302 191 624
b 303 637 638
b 304 191 637
b 305 191 795
b 306 192 817
b 307 193 689
b 308 194 536
b 309 535 536
b 310 536
b 311 195 797
b 312 797 798
b 313 196
b 314 197 524
b 315 803 804
b 316 197 803
b 317 197 913
b 318 198
b 319 199 819
b 320 200 666
b 321 200 733
b 322 201 734
b 323 202
b 324 319 320
b 325 203 319
b 326 203 510
b 327 204 489
b 328 205 490
b 329 205 753
b 330 206 371
b 331 371 372
b 332 207 372
b 333 207 499
b 334 208 500
b 335 209 445
b 336 209 847
b 337 847 848
b 338 210 622
b 339 211 923
b 340 212
b 341 213 281
b 342 214 796
b 343 215
b 344 379 380
b 345 216 380
b 346 216 639
b 347 217 805
b 348 257 258
b 349 218 258
b 350 218 806
b 351 805 806
b 352 806
b 353 219 863
b 354 220 882
b 355 220 914
b 356 221
b 357 222
b 358 223 426
b 359 551 552
b 360 224 552
b 361 224 667
b 362 224 904
b 363 225 668
b 364 226 292
b 365 227
b 366 321 322
b 367 228 322
b 368 228 754
b 369 229
b 370 230
b 371 231 325
b 372 232 326
b 373 232 915
b 374 233
b 375 234 553
b 376 553 554
b 377 235 565
b 378 236 566
b 379 236 756
b 380 755 756
b 381 756
b 382 237
b 383 238 466
b 384 240 309
b 385 240 376
b 386 239 340
b 387 239 375
b 388 375 376
b 389 376
b 390 241 735
b 391 735 736
b 392 242
b 393 243
b 394 244
b 395 246
b 396 251
b 397 253 254
b 398 255 256
b 399 259
b 400 261
b 401 262
b 402 263
b 403 264
b 404 266
b 405 267
b 406 269 270
b 407 276
b 408 282
b 409 285
b 410 286
b 411 290
b 412 291
b 413 294
b 414 295
b 415 296
b 416 299
b 417 300
b 418 301
b 419 304
b 420 305
b 421 306
b 422 308
b 423 310
b 424 311
b 425 313 314
b 426 317 318
b 427 323 324
b 428 327
b 429 328
b 430 329 330
b 431 331
b 432 332
b 433 334
b 434 335
b 435 336
b 436 337
b 437 338
b 438 339
b 439 348
b 440 351
b 441 352
b 442 355
b 443 356
b 444 357 358
b 445 359 360
b 446 362
b 447 363
b 448 364
b 449 365 366
b 450 367
b 451 369
b 452 370
b 453 373
b 454 374
b 455 377
b 456 378
b 457 381 382
b 458 385
b 459 386
b 460 389 390
b 461 393
b 462 394
b 463 396
b 464 401
b 465 404
b 466 406
b 467 407
b 468 408
b 469 411
b 470 412
b 471 413
b 472 415 416
b 473 417
b 474 420
b 475 423
b 476 424
b 477 425
b 478 429 430
b 479 431
b 480 432
b 481 433 434
b 482 435
b 483 436
b 484 437 438
b 485 439
b 486 440
b 487 446
b 488 453 454
b 489 456
b 490 457
b 491 459
b 492 460
b 493 461
b 494 463
b 495 464
b 496 465
b 497 467
b 498 468
b 499 469 470
b 500 471
b 501 472
b 502 473 474
b 503 475
b 504 476
b 505 477
b 506 478
b 507 479
b 508 480
b 509 481
b 510 482
b 511 485 486
b 512 487 488
b 513 491 492
b 514 493
b 515 494
b 516 497
b 517 498
b 518 501
b 519 502
b 520 503
b 521 504
b 522 505
b 523 507
b 524 508
b 525 509
b 526 511
b 527 512
b 528 515 516
b 529 517
b 530 519 520
b 531 521
b 532 523
b 533 525 526
b 534 527 528
b 535 529
b 536 530
b 537 533
b 538 537 538
b 539 539
b 540 540
b 541 541
b 542 542
b 543 545
b 544 549
b 545 550
b 546 555
b 547 556
b 548 558
b 549 561
b 550 563
b 551 564
b 552 567
b 553 568
b 554 569
b 555 574
b 556 575 576
b 557 577
b 558 579
b 559 581 582
b 560 585
b 561 586
b 562 587
b 563 588
b 564 589
b 565 590
b 566 591
b 567 592
b 568 599
b 569 600
b 570 602
b 571 604
b 572 605
b 573 606
b 574 609
b 575 610
b 576 611 612
b 577 613
b 578 614
b 579 615
b 580 616
b 581 617
b 582 618
b 583 623
b 584 625
b 585 626
b 586 627
b 587 628
b 588 629 630
b 589 631
b 590 632
b 591 633
b 592 640
b 593 642
b 594 643
b 595 645
b 596 646
b 597 647
b 598 648
b 599 649
b 600 650
b 601 652
b 602 653
b 603 654
b 604 655 656
b 605 659 660
b 606 663
b 607 664
b 608 665
b 609 669
b 610 670
b 611 672
b 612 675
b 613 677
b 614 679 680
b 615 681 682
b 616 683
b 617 684
b 618 685
b 619 686
b 620 687
b 621 688
b 622 690
b 623 693
b 624 694
b 625 696
b 626 697
b 627 698
b 628 699
b 629 700
b 630 701
b 631 702
b 632 703
b 633 706
b 634 709 710
b 635 711
b 636 712
b 637 713
b 638 714
b 639 717 718
b 640 719 720
b 641 721
b 642 722
b 643 724
b 644 727
b 645 728
b 646 731
b 647 732
b 648 737
b 649 738
b 650 740
b 651 741
b 652 742
b 653 743
b 654 744
b 655 747 748
b 656 749
b 657 750
b 658 751
b 659 752
b 660 757
b 661 758
b 662 759
b 663 760
b 664 765 766
b 665 769 770
b 666 771
b 667 772
b 668 773
b 669 775 776
b 670 779
b 671 781 782
b 672 784
b 673 785 786
b 674 787
b 675 789
b 676 790
b 677 791
b 678 792
b 679 794
b 680 799
b 681 800
b 682 801
b 683 802
b 684 807
b 685 808
b 686 809
b 687 810
b 688 812
b 689 813
b 690 814
b 691 816
b 692 818
b 693 820
b 694 822
b 695 823
b 696 825
b 697 827 828
b 698 829
b 699 830
b 700 835
b 701 836
b 702 837
b 703 839
b 704 840
b 705 842
b 706 843
b 707 845
b 708 846
b 709 849
b 710 856
b 711 857
b 712 860
b 713 861
b 714 862
b 715 864
b 716 865
b 717 866
b 718 867
b 719 868
b 720 871
b 721 872
b 722 873
b 723 874
b 724 875
b 725 876
b 726 878
b 727 881
b 728 883
b 729 886
b 730 888
b 731 889
b 732 890
b 733 891 892
b 734 894
b 735 895
b 736 897
b 737 899
b 738 900
b 739 901 902
b 740 903
b 741 905
b 742 906
b 743 907 908
b 744 910
b 745 911
b 746 916
b 747 924
1 2
1 4
1 8
1 11
1 12
1 13
1 14
1 15
1 17
1 18
1 20
1 21
1 22
1 30
1 31
1 33
1 35
1 36
1 37
1 39
1 40
1 42
1 45
1 46
1 47
1 48
1 49
1 50
1 51
1 52
1 56
1 57
1 58
1 59
1 60
1 61
1 64
1 65
1 66
1 67
1 68
1 69
1 70
1 71
1 72
1 73
1 74
1 75
1 77
1 80
1 83
1 84
1 86
1 87
1 88
1 93
1 94
1 96
1 97
1 98
1 99
1 100
1 101
1 102
1 103
1 105
1 106
1 108
1 111
1 113
1 115
1 116
1 118
1 119
1 120
1 121
1 122
1 123
1 126
1 127
1 128
1 135
1 136
1 137
1 140
1 141
1 142
1 143
1 144
1 145
1 146
1 147
1 149
1 150
1 151
1 154
1 156
1 157
1 158
1 159
1 160
1 166
1 170
1 171
1 174
1 175
1 179
1 180
1 181
1 182
1 183
1 185
1 186
1 188
1 189
1 190
1 191
1 192
1 194
1 196
1 197
1 198
1 200
1 202
1 203
1 204
1 205
1 209
1 210
1 212
1 215
1 216
1 217
1 218
1 219
1 220
1 222
1 223
1 224
1 228
1 230
1 231
1 232
1 236
1 238
1 239
1 242
1 243
1 244
1 245
1 246
1 247
1 248
1 251
1 253
1 254
1 255
1 260
1 264
1 265
1 267
1 268
1 269
1 271
1 275
1 276
1 277
1 281
1 282
1 285
1 287
1 290
1 291
1 292
1 293
1 295
1 296
1 297
1 302
1 306
1 307
1 308
1 311
1 313
1 314
1 318
1 319
1 320
1 322
1 323
1 324
1 327
1 328
1 330
1 334
1 335
1 338
1 339
1 340
1 341
1 342
1 343
1 344
1 347
1 353
1 354
1 356
1 357
1 358
1 359
1 363
1 364
1 365
1 366
1 369
1 370
1 371
1 372
1 374
1 375
1 377
1 378
1 382
1 383
1 384
1 390
1 392
1 393
1 394
1 395
1 396
1 397
1 398
1 399
1 400
1 401
1 402
1 403
1 404
1 405
1 406
1 407
1 408
1 409
1 410
1 411
1 412
1 413
1 414
1 415
1 416
1 417
1 418
1 419
1 420
1 421
1 422
1 423
1 424
1 425
1 426
1 427
1 428
1 429
1 430
1 431
1 432
1 433
1 434
1 435
1 436
1 437
1 438
1 439
1 440
1 441
1 442
1 443
1 444
1 445
1 446
1 447
1 448
1 449
1 450
1 451
1 452
1 453
1 454
1 455
1 456
1 457
1 458
1 459
1 460
1 461
1 462
1 463
1 464
1 465
1 466
1 467
1 468
1 469
1 470
1 471
1 472
1 473
1 474
1 475
1 476
1 477
1 478
1 479
1 480
1 481
1 482
1 483
1 484
1 485
1 486
1 487
1 488
1 489
1 490
1 491
1 492
1 493
1 494
1 495
1 496
1 497
1 498
1 499
1 500
1 501
1 502
1 503
1 504
1 505
1 506
1 507
1 508
1 509
1 510
1 511
1 512
1 513
1 514
1 515
1 516
1 517
1 518
1 519
1 520
1 521
1 522
1 523
1 524
1 525
1 526
1 527
1 528
1 529
1 530
1 531
1 532
1 533
1 534
1 535
1 536
1 537
1 538
1 539
1 540
1 541
1 542
1 543
1 544
1 545
1 546
1 547
1 548
1 549
1 550
1 551
1 552
1 553
1 554
1 555
1 556
1 557
1 558
1 559
1 560
1 561
1 562
1 563
1 564
1 565
1 566
1 567
1 568
1 569
1 570
1 571
1 572
1 573
1 574
1 575
1 576
1 577
1 578
1 579
1 580
1 581
1 582
1 583
1 584
1 585
1 586
1 587
1 588
1 589
1 590
1 591
1 592
1 593
1 594
1 595
1 596
1 597
1 598
1 599
1 600
1 601
1 602
1 603
1 604
1 605
1 606
1 607
1 608
1 609
1 610
1 611
1 612
1 613
1 614
1 615
1 616
1 617
1 618
1 619
1 620
1 621
1 622
1 623
1 624
1 625
1 626
1 627
1 628
1 629
1 630
1 631
1 632
1 633
1 634
1 635
1 636
1 637
1 638
1 639
1 640
1 641
1 642
1 643
1 644
1 645
1 646
1 647
1 648
1 649
1 650
1 651
1 652
1 653
1 654
1 655
1 656
1 657
1 658
1 659
1 660
1 661
1 662
1 663
1 664
1 665
1 666
1 667
1 668
1 669
1 670
1 671
1 672
1 673
1 674
1 675
1 676
1 677
1 678
1 679
1 680
1 681
1 682
1 683
1 684
1 685
1 686
1 687
1 688
1 689
1 690
1 691
1 692
1 693
1 694
1 695
1 696
1 697
1 698
1 699
1 700
1 701
1 702
1 703
1 704
1 705
1 706
1 707
1 708
1 709
1 710
1 711
1 712
1 713
1 714
1 715
1 716
1 717
1 718
1 719
1 720
1 721
1 722
1 723
1 724
1 725
1 726
1 727
1 728
1 729
1 730
1 731
1 732
1 733
1 734
1 735
1 736
1 737
1 738
1 739
1 740
1 741
1 742
1 743
1 744
1 745
1 746
1 747
2 3
4 5
5 6
6 7
8 10
9 10
15 16
18 19
22 23
23 29
24 27
25 26
26 27
27 28
28 29
31 32
33 34
37 38
40 41
42 44
43 44
52 53
53 55
54 55
61 62
62 63
75 76
77 79
78 79
80 82
81 82
84 85
88 91
89 90
90 92
91 92
94 95
103 104
106 107
108 109
109 110
111 112
113 114
116 117
123 125
124 125
128 133
129 130
130 131
131 132
132 134
133 134
137 139
138 139
147 148
151 152
152 153
154 155
160 164
161 162
162 163
163 165
164 165
166 167
167 168
168 169
171 173
172 173
175 178
176 177
177 178
183 184
186 187
192 193
194 195
198 199
200 201
205 207
206 208
207 208
210 211
212 213
213 214
220 221
224 226
225 227
226 227
228 229
232 233
233 235
234 235
236 237
239 240
240 241
248 250
249 250
251 252
255 256
256 257
257 259
258 259
260 262
261 263
262 263
265 266
269 270
271 273
272 274
273 274
277 278
278 279
279 280
282 284
283 284
285 286
287 289
288 289
293 294
297 300
298 299
299 300
300 301
302 305
303 304
304 305
308 310
309 310
311 312
314 317
315 316
316 317
320 321
324 325
325 326
328 329
330 331
331 332
332 333
335 336
336 337
344 345
345 346
347 351
348 349
349 350
350 352
351 352
354 355
359 360
360 362
361 362
366 367
367 368
372 373
375 376
378 379
379 381
380 381
384 385
385 389
386 387
387 388
388 389
390 391
